(set-logic ALL)
(declare-fun seed0_T_1 () Bool)
(declare-fun seed0_T_2 () Bool)
(declare-fun seed0_var_0xINPUT_64585 () String)
(assert (and (or (= seed0_T_1 (not (= "4PH2ujcENG" seed0_var_0xINPUT_64585))) (or (str.<= (str.++ seed0_var_0xINPUT_64585 "zX") (str.++ seed0_var_0xINPUT_64585 "n9xTUt04KOSlo2Ge")) (str.contains (str.++ seed0_var_0xINPUT_64585 "l") (str.++ seed0_var_0xINPUT_64585 "DKRP1kbLu")))) (or seed0_T_1 (and (str.contains (str.++ seed0_var_0xINPUT_64585 "NDMYei407scBCwVAn") (str.++ seed0_var_0xINPUT_64585 "BwYgep4A13Gl")) (str.<= (str.++ seed0_var_0xINPUT_64585 "") (str.++ seed0_var_0xINPUT_64585 "p7sMhK0SWfG539o")))) (or (= seed0_T_2 (not (= seed0_var_0xINPUT_64585 ""))) (and (str.< (str.++ seed0_var_0xINPUT_64585 "fg2N93vXnAPJe") (str.++ seed0_var_0xINPUT_64585 "WJ")) (str.contains (str.++ seed0_var_0xINPUT_64585 "dtWCs6Q2SZjE") (str.++ seed0_var_0xINPUT_64585 "9op")))) (or seed0_T_2 (or (str.prefixof (str.++ seed0_var_0xINPUT_64585 "olgt2Rmiz") (str.++ seed0_var_0xINPUT_64585 "hkpjSluCL")) (str.< (str.++ seed0_var_0xINPUT_64585 "j") (str.++ seed0_var_0xINPUT_64585 "ZjEQGA7n"))))))
(check-sat)
(exit)